(declare-const BAV1 Bool)
(declare-const GEN5 Int)
(declare-const GEN4 Int)
(declare-const GEN3 Int)
(declare-const GEN2 Int)
(declare-const GEN1 Int)
(set-option :pp.max-depth 100)
(declare-fun p (Int) Bool)
(declare-fun f (Int Real) Bool)
(declare-fun q (Int Bool) Bool)
(declare-fun a () Int)
(push)
(assert (q GEN1 (! (p GEN2) :lblpos foo :lblneg tst)))
(apply snf)
(echo "-----")
(pop)
(push)
(assert (q GEN3 (and (! (p GEN4) :lblpos foo) (! (p GEN5) :lblneg tst))))
(apply snf)
(echo "-----")
(apply nnf)
(echo "-----")
(pop)
(assert (= BAV1 (and (! (p GEN4) :lblpos foo) (! (p GEN5) :lblneg tst))))